100
32
21
14
9
26
11
26
9
8
1
23
6
1
1
4
18
2
1
19
2
1
21
1
1
1
1
1
5
2
17
2
4
4
1
5
2
2
22
17
4
17
4
6
1
3
2
2
17
3
1
1
1
1
1
1
6
1
3
3
6
21
2
1
17
1
2
1
1
2
1
1
6
18
6
4
5
1
1
6
1
17
3
2
3
2
1
1
1
1
3
1
2
2
1
2
2
2
1
1
1
1